SCIP version 5.0.0 [precision: 8 byte] [memory: block] [mode: optimized] [LP solver: NONE] [GitHash: 3bbd232]
Copyright (C) 2002-2017 Konrad-Zuse-Zentrum fuer Informationstechnik Berlin (ZIB)

External codes: 
  Readline EditLine w  GNU library for command line editing (gnu.org/s/readline)
  CppAD 20160000.1     Algorithmic Differentiation of C++ algorithms developed by B. Bell (www.coin-or.org/CppAD)
  ZLIB 1.2.5           General purpose compression library by J. Gailly and M. Adler (zlib.net)
  GMP 6.1.2            GNU Multiple Precision Arithmetic Library developed by T. Granlund (gmplib.org)

user parameter file <scip.set> not found - using default parameters

read problem <../../Split_data/output/breast/0/4_sample_breast.logreg>
============

File name	:	../../Split_data/output/breast/0/4_sample_breast.logreg
Problem name 	:	4_sample_breast
Number of data	:	156
Number of var	:	33
The given data has linear independence

[dim=1] time: 0.004028
[dim=2] time: 0.008189
[dim=3] time: 0.012031
[dim=4] time: 0.015747
[dim=5] time: 0.020018
[dim=6] time: 0.02396
[dim=7] time: 0.027969
[dim=8] time: 0.031545
[dim=9] time: 0.035261
[dim=10] time: 0.0389
[dim=11] time: 0.04473
[dim=12] time: 0.047834
[dim=13] time: 0.050888
[dim=14] time: 0.053804
[dim=15] time: 0.05696
[dim=16] time: 0.059357
[dim=17] time: 0.061608
[dim=18] time: 0.063855
[dim=19] Time of forward = 0.066047sec.
AIC: 126.54
k: 18

[dim=33] time: 0.012647
[dim=32] time: 0.022256
[dim=31] time: 0.032989
[dim=30] time: 0.043923
[dim=29] time: 0.054358
[dim=28] time: 0.062697
[dim=27] time: 0.072574
[dim=26] time: 0.079684
[dim=25] time: 0.085879
[dim=24] Time of backward = 0.091492sec.
AIC: 122.795
k: 25
